$molecule
0 1
H $(1.00, 2.00) 1.00 1.00
$end

$rem
basis 6-31G*
jobtype sp
exchange hf
$end
